* #variable= 1000 #constraint= 1
min: -188 x1 -706 x2 -632 x3 -300 x4 -870 x5 -956 x6 -488 x7 -488 x8 -728 x9 -414 x10 -526 x11 -526 x12 -874 x13 -670 x14 -680 x15 -504 x16 -906 x17 -396 x18 -198 x19 -344 x20 -624 x21 -476 x22 -624 x23 -416 x24 -456 x25 -368 x26 -832 x27 -822 x28 -882 x29 -396 x30 -634 x31 -424 x32 -490 x33 -594 x34 -380 x35 -990 x36 -478 x37 -336 x38 -794 x39 -566 x40 -226 x41 -470 x42 -28 x43 -380 x44 -720 x45 -864 x46 -716 x47 -572 x48 -362 x49 -654 x50 -156 x51 -404 x52 -230 x53 -684 x54 -812 x55 -604 x56 -746 x57 -878 x58 -492 x59 -422 x60 -494 x61 -754 x62 -696 x63 -972 x64 -496 x65 -176 x66 -186 x67 -748 x68 -720 x69 -544 x70 -30 x71 -874 x72 -816 x73 -358 x74 -554 x75 -468 x76 -904 x77 -212 x78 -540 x79 -360 x80 -396 x81 -152 x82 -670 x83 -282 x84 -482 x85 -78 x86 -778 x87 -144 x88 -644 x89 -760 x90 -272 x91 -88 x92 -886 x93 -986 x94 -142 x95 -858 x96 -132 x97 -402 x98 -36 x99 -182 x100 -76 x101 -868 x102 -620 x103 -712 x104 -66 x105 -744 x106 -592 x107 -66 x108 -702 x109 -776 x110 -980 x111 -518 x112 -358 x113 -8 x114 -16 x115 -600 x116 -296 x117 -788 x118 -998 x119 -856 x120 -986 x121 -180 x122 -608 x123 -922 x124 -28 x125 -678 x126 -8 x127 -202 x128 -72 x129 -456 x130 -632 x131 -770 x132 -330 x133 -486 x134 -204 x135 -746 x136 -824 x137 -146 x138 -486 x139 -170 x140 -282 x141 -702 x142 -162 x143 -364 x144 -234 x145 -518 x146 -196 x147 -106 x148 -188 x149 -548 x150 -862 x151 -974 x152 -544 x153 -10 x154 -248 x155 -778 x156 -182 x157 -356 x158 -840 x159 -852 x160 -714 x161 -136 x162 -426 x163 -306 x164 -168 x165 -354 x166 -198 x167 -814 x168 -50 x169 -582 x170 -982 x171 -106 x172 -52 x173 -534 x174 -240 x175 -284 x176 -638 x177 -312 x178 -888 x179 -172 x180 -690 x181 -894 x182 -594 x183 -522 x184 -26 x185 -614 x186 -676 x187 -202 x188 -676 x189 -912 x190 -34 x191 -628 x192 -502 x193 -598 x194 -406 x195 -396 x196 -48 x197 -974 x198 -488 x199 -162 x200 -594 x201 -162 x202 -284 x203 -498 x204 -678 x205 -1000 x206 -804 x207 -498 x208 -766 x209 -356 x210 -110 x211 -424 x212 -844 x213 -194 x214 -760 x215 -718 x216 -436 x217 -186 x218 -786 x219 -14 x220 -32 x221 -294 x222 -188 x223 -786 x224 -614 x225 -22 x226 -502 x227 -524 x228 -898 x229 -402 x230 -544 x231 -566 x232 -68 x233 -912 x234 -294 x235 -722 x236 -254 x237 -210 x238 -370 x239 -796 x240 -652 x241 -722 x242 -646 x243 -524 x244 -256 x245 -986 x246 -940 x247 -716 x248 -346 x249 -668 x250 -300 x251 -282 x252 -816 x253 -930 x254 -392 x255 -894 x256 -64 x257 -764 x258 -968 x259 -406 x260 -686 x261 -632 x262 -750 x263 -520 x264 -28 x265 -612 x266 -676 x267 -212 x268 -118 x269 -478 x270 -802 x271 -236 x272 -414 x273 -450 x274 -464 x275 -314 x276 -386 x277 -980 x278 -1000 x279 -66 x280 -792 x281 -758 x282 -750 x283 -546 x284 -620 x285 -294 x286 -628 x287 -188 x288 -830 x289 -572 x290 -974 x291 -972 x292 -834 x293 -574 x294 -760 x295 -628 x296 -134 x297 -502 x298 -390 x299 -252 x300 -730 x301 -598 x302 -22 x303 -944 x304 -238 x305 -564 x306 -608 x307 -832 x308 -974 x309 -290 x310 -164 x311 -116 x312 -586 x313 -478 x314 -996 x315 -994 x316 -782 x317 -592 x318 -82 x319 -182 x320 -542 x321 -276 x322 -424 x323 -714 x324 -490 x325 -402 x326 -426 x327 -990 x328 -470 x329 -214 x330 -278 x331 -958 x332 -96 x333 -836 x334 -236 x335 -576 x336 -138 x337 -358 x338 -150 x339 -74 x340 -656 x341 -144 x342 -82 x343 -646 x344 -222 x345 -798 x346 -754 x347 -406 x348 -812 x349 -4 x350 -496 x351 -464 x352 -970 x353 -348 x354 -22 x355 -630 x356 -578 x357 -482 x358 -544 x359 -210 x360 -112 x361 -192 x362 -538 x363 -430 x364 -296 x365 -878 x366 -628 x367 -182 x368 -566 x369 -342 x370 -506 x371 -738 x372 -114 x373 -218 x374 -318 x375 -172 x376 -284 x377 -572 x378 -38 x379 -372 x380 -230 x381 -782 x382 -504 x383 -872 x384 -784 x385 -810 x386 -508 x387 -572 x388 -790 x389 -552 x390 -390 x391 -290 x392 -256 x393 -74 x394 -562 x395 -920 x396 -356 x397 -544 x398 -610 x399 -864 x400 -308 x401 -900 x402 -970 x403 -214 x404 -292 x405 -148 x406 -948 x407 -954 x408 -188 x409 -538 x410 -458 x411 -966 x412 -828 x413 -888 x414 -966 x415 -344 x416 -260 x417 -194 x418 -562 x419 -80 x420 -744 x421 -898 x422 -80 x423 -654 x424 -348 x425 -798 x426 -238 x427 -426 x428 -170 x429 -620 x430 -744 x431 -752 x432 -808 x433 -776 x434 -320 x435 -730 x436 -862 x437 -380 x438 -990 x439 -564 x440 -382 x441 -278 x442 -842 x443 -584 x444 -570 x445 -944 x446 -808 x447 -142 x448 -400 x449 -938 x450 -560 x451 -516 x452 -768 x453 -232 x454 -826 x455 -614 x456 -572 x457 -330 x458 -128 x459 -318 x460 -506 x461 -488 x462 -114 x463 -132 x464 -290 x465 -282 x466 -706 x467 -984 x468 -390 x469 -340 x470 -988 x471 -478 x472 -346 x473 -140 x474 -378 x475 -446 x476 -218 x477 -578 x478 -186 x479 -860 x480 -274 x481 -10 x482 -452 x483 -830 x484 -206 x485 -362 x486 -144 x487 -560 x488 -774 x489 -632 x490 -700 x491 -206 x492 -774 x493 -640 x494 -566 x495 -748 x496 -112 x497 -810 x498 -108 x499 -46 x500 -608 x501 -592 x502 -896 x503 -58 x504 -978 x505 -596 x506 -30 x507 -260 x508 -320 x509 -378 x510 -326 x511 -238 x512 -380 x513 -440 x514 -512 x515 -760 x516 -776 x517 -940 x518 -246 x519 -394 x520 -832 x521 -830 x522 -94 x523 -450 x524 -428 x525 -872 x526 -104 x527 -82 x528 -20 x529 -306 x530 -330 x531 -912 x532 -542 x533 -238 x534 -508 x535 -424 x536 -562 x537 -632 x538 -812 x539 -782 x540 -704 x541 -946 x542 -56 x543 -402 x544 -84 x545 -536 x546 -860 x547 -770 x548 -490 x549 -726 x550 -510 x551 -108 x552 -84 x553 -942 x554 -378 x555 -86 x556 -982 x557 -28 x558 -840 x559 -116 x560 -510 x561 -588 x562 -670 x563 -984 x564 -384 x565 -944 x566 -8 x567 -328 x568 -388 x569 -280 x570 -678 x571 -464 x572 -536 x573 -616 x574 -230 x575 -522 x576 -926 x577 -992 x578 -344 x579 -906 x580 -246 x581 -936 x582 -424 x583 -316 x584 -556 x585 -662 x586 -174 x587 -634 x588 -256 x589 -774 x590 -152 x591 -196 x592 -962 x593 -984 x594 -542 x595 -844 x596 -270 x597 -458 x598 -972 x599 -328 x600 -8 x601 -528 x602 -912 x603 -792 x604 -306 x605 -656 x606 -330 x607 -538 x608 -252 x609 -480 x610 -576 x611 -130 x612 -428 x613 -212 x614 -358 x615 -566 x616 -808 x617 -386 x618 -108 x619 -268 x620 -174 x621 -164 x622 -654 x623 -270 x624 -438 x625 -550 x626 -14 x627 -174 x628 -334 x629 -872 x630 -758 x631 -156 x632 -570 x633 -982 x634 -70 x635 -64 x636 -74 x637 -670 x638 -282 x639 -336 x640 -418 x641 -558 x642 -4 x643 -82 x644 -772 x645 -334 x646 -530 x647 -516 x648 -554 x649 -740 x650 -568 x651 -370 x652 -606 x653 -338 x654 -996 x655 -496 x656 -238 x657 -862 x658 -458 x659 -492 x660 -428 x661 -888 x662 -724 x663 -672 x664 -378 x665 -108 x666 -76 x667 -746 x668 -446 x669 -86 x670 -56 x671 -118 x672 -392 x673 -960 x674 -620 x675 -776 x676 -364 x677 -122 x678 -820 x679 -974 x680 -910 x681 -920 x682 -78 x683 -324 x684 -362 x685 -364 x686 -336 x687 -348 x688 -700 x689 -738 x690 -524 x691 -410 x692 -244 x693 -76 x694 -118 x695 -440 x696 -998 x697 -600 x698 -216 x699 -918 x700 -568 x701 -34 x702 -64 x703 -562 x704 -868 x705 -462 x706 -236 x707 -846 x708 -832 x709 -486 x710 -454 x711 -654 x712 -584 x713 -772 x714 -924 x715 -666 x716 -1000 x717 -132 x718 -346 x719 -560 x720 -486 x721 -308 x722 -114 x723 -866 x724 -874 x725 -168 x726 -994 x727 -872 x728 -138 x729 -558 x730 -164 x731 -560 x732 -62 x733 -352 x734 -144 x735 -582 x736 -368 x737 -152 x738 -980 x739 -562 x740 -892 x741 -732 x742 -818 x743 -46 x744 -148 x745 -378 x746 -50 x747 -854 x748 -728 x749 -8 x750 -38 x751 -822 x752 -648 x753 -84 x754 -358 x755 -658 x756 -504 x757 -376 x758 -702 x759 -138 x760 -188 x761 -568 x762 -668 x763 -216 x764 -736 x765 -876 x766 -476 x767 -902 x768 -412 x769 -758 x770 -412 x771 -598 x772 -940 x773 -226 x774 -502 x775 -300 x776 -446 x777 -80 x778 -120 x779 -580 x780 -540 x781 -156 x782 -726 x783 -618 x784 -204 x785 -916 x786 -518 x787 -454 x788 -956 x789 -346 x790 -746 x791 -934 x792 -420 x793 -130 x794 -4 x795 -876 x796 -414 x797 -472 x798 -718 x799 -512 x800 -764 x801 -862 x802 -122 x803 -642 x804 -346 x805 -672 x806 -816 x807 -982 x808 -866 x809 -314 x810 -584 x811 -736 x812 -138 x813 -460 x814 -782 x815 -938 x816 -406 x817 -806 x818 -910 x819 -232 x820 -780 x821 -592 x822 -684 x823 -740 x824 -866 x825 -26 x826 -394 x827 -858 x828 -452 x829 -388 x830 -666 x831 -790 x832 -216 x833 -422 x834 -568 x835 -358 x836 -548 x837 -230 x838 -968 x839 -460 x840 -910 x841 -338 x842 -360 x843 -944 x844 -226 x845 -322 x846 -436 x847 -760 x848 -348 x849 -682 x850 -698 x851 -846 x852 -374 x853 -758 x854 -96 x855 -532 x856 -502 x857 -132 x858 -182 x859 -922 x860 -820 x861 -368 x862 -862 x863 -934 x864 -310 x865 -502 x866 -822 x867 -110 x868 -288 x869 -46 x870 -302 x871 -316 x872 -698 x873 -52 x874 -80 x875 -340 x876 -174 x877 -766 x878 -148 x879 -840 x880 -538 x881 -170 x882 -532 x883 -228 x884 -396 x885 -746 x886 -106 x887 -454 x888 -936 x889 -650 x890 -176 x891 -868 x892 -706 x893 -714 x894 -974 x895 -746 x896 -80 x897 -598 x898 -628 x899 -8 x900 -966 x901 -540 x902 -194 x903 -370 x904 -318 x905 -822 x906 -672 x907 -596 x908 -578 x909 -720 x910 -326 x911 -328 x912 -572 x913 -360 x914 -794 x915 -652 x916 -136 x917 -766 x918 -734 x919 -616 x920 -754 x921 -24 x922 -306 x923 -170 x924 -642 x925 -244 x926 -578 x927 -182 x928 -524 x929 -278 x930 -806 x931 -520 x932 -818 x933 -934 x934 -538 x935 -904 x936 -386 x937 -724 x938 -690 x939 -394 x940 -732 x941 -444 x942 -844 x943 -20 x944 -154 x945 -372 x946 -944 x947 -636 x948 -428 x949 -22 x950 -424 x951 -94 x952 -592 x953 -388 x954 -880 x955 -744 x956 -898 x957 -462 x958 -116 x959 -352 x960 -676 x961 -414 x962 -404 x963 -898 x964 -924 x965 -814 x966 -970 x967 -822 x968 -134 x969 -224 x970 -410 x971 -890 x972 -310 x973 -586 x974 -964 x975 -708 x976 -926 x977 -304 x978 -578 x979 -64 x980 -640 x981 -814 x982 -332 x983 -756 x984 -950 x985 -898 x986 -296 x987 -660 x988 -220 x989 -832 x990 -714 x991 -226 x992 -328 x993 -142 x994 -358 x995 -560 x996 -884 x997 -376 x998 -558 x999 -286 x1000 ;
-188 x1 -706 x2 -632 x3 -300 x4 -870 x5 -956 x6 -488 x7 -488 x8 -728 x9 -414 x10 -526 x11 -526 x12 -874 x13 -670 x14 -680 x15 -504 x16 -906 x17 -396 x18 -198 x19 -344 x20 -624 x21 -476 x22 -624 x23 -416 x24 -456 x25 -368 x26 -832 x27 -822 x28 -882 x29 -396 x30 -634 x31 -424 x32 -490 x33 -594 x34 -380 x35 -990 x36 -478 x37 -336 x38 -794 x39 -566 x40 -226 x41 -470 x42 -28 x43 -380 x44 -720 x45 -864 x46 -716 x47 -572 x48 -362 x49 -654 x50 -156 x51 -404 x52 -230 x53 -684 x54 -812 x55 -604 x56 -746 x57 -878 x58 -492 x59 -422 x60 -494 x61 -754 x62 -696 x63 -972 x64 -496 x65 -176 x66 -186 x67 -748 x68 -720 x69 -544 x70 -30 x71 -874 x72 -816 x73 -358 x74 -554 x75 -468 x76 -904 x77 -212 x78 -540 x79 -360 x80 -396 x81 -152 x82 -670 x83 -282 x84 -482 x85 -78 x86 -778 x87 -144 x88 -644 x89 -760 x90 -272 x91 -88 x92 -886 x93 -986 x94 -142 x95 -858 x96 -132 x97 -402 x98 -36 x99 -182 x100 -76 x101 -868 x102 -620 x103 -712 x104 -66 x105 -744 x106 -592 x107 -66 x108 -702 x109 -776 x110 -980 x111 -518 x112 -358 x113 -8 x114 -16 x115 -600 x116 -296 x117 -788 x118 -998 x119 -856 x120 -986 x121 -180 x122 -608 x123 -922 x124 -28 x125 -678 x126 -8 x127 -202 x128 -72 x129 -456 x130 -632 x131 -770 x132 -330 x133 -486 x134 -204 x135 -746 x136 -824 x137 -146 x138 -486 x139 -170 x140 -282 x141 -702 x142 -162 x143 -364 x144 -234 x145 -518 x146 -196 x147 -106 x148 -188 x149 -548 x150 -862 x151 -974 x152 -544 x153 -10 x154 -248 x155 -778 x156 -182 x157 -356 x158 -840 x159 -852 x160 -714 x161 -136 x162 -426 x163 -306 x164 -168 x165 -354 x166 -198 x167 -814 x168 -50 x169 -582 x170 -982 x171 -106 x172 -52 x173 -534 x174 -240 x175 -284 x176 -638 x177 -312 x178 -888 x179 -172 x180 -690 x181 -894 x182 -594 x183 -522 x184 -26 x185 -614 x186 -676 x187 -202 x188 -676 x189 -912 x190 -34 x191 -628 x192 -502 x193 -598 x194 -406 x195 -396 x196 -48 x197 -974 x198 -488 x199 -162 x200 -594 x201 -162 x202 -284 x203 -498 x204 -678 x205 -1000 x206 -804 x207 -498 x208 -766 x209 -356 x210 -110 x211 -424 x212 -844 x213 -194 x214 -760 x215 -718 x216 -436 x217 -186 x218 -786 x219 -14 x220 -32 x221 -294 x222 -188 x223 -786 x224 -614 x225 -22 x226 -502 x227 -524 x228 -898 x229 -402 x230 -544 x231 -566 x232 -68 x233 -912 x234 -294 x235 -722 x236 -254 x237 -210 x238 -370 x239 -796 x240 -652 x241 -722 x242 -646 x243 -524 x244 -256 x245 -986 x246 -940 x247 -716 x248 -346 x249 -668 x250 -300 x251 -282 x252 -816 x253 -930 x254 -392 x255 -894 x256 -64 x257 -764 x258 -968 x259 -406 x260 -686 x261 -632 x262 -750 x263 -520 x264 -28 x265 -612 x266 -676 x267 -212 x268 -118 x269 -478 x270 -802 x271 -236 x272 -414 x273 -450 x274 -464 x275 -314 x276 -386 x277 -980 x278 -1000 x279 -66 x280 -792 x281 -758 x282 -750 x283 -546 x284 -620 x285 -294 x286 -628 x287 -188 x288 -830 x289 -572 x290 -974 x291 -972 x292 -834 x293 -574 x294 -760 x295 -628 x296 -134 x297 -502 x298 -390 x299 -252 x300 -730 x301 -598 x302 -22 x303 -944 x304 -238 x305 -564 x306 -608 x307 -832 x308 -974 x309 -290 x310 -164 x311 -116 x312 -586 x313 -478 x314 -996 x315 -994 x316 -782 x317 -592 x318 -82 x319 -182 x320 -542 x321 -276 x322 -424 x323 -714 x324 -490 x325 -402 x326 -426 x327 -990 x328 -470 x329 -214 x330 -278 x331 -958 x332 -96 x333 -836 x334 -236 x335 -576 x336 -138 x337 -358 x338 -150 x339 -74 x340 -656 x341 -144 x342 -82 x343 -646 x344 -222 x345 -798 x346 -754 x347 -406 x348 -812 x349 -4 x350 -496 x351 -464 x352 -970 x353 -348 x354 -22 x355 -630 x356 -578 x357 -482 x358 -544 x359 -210 x360 -112 x361 -192 x362 -538 x363 -430 x364 -296 x365 -878 x366 -628 x367 -182 x368 -566 x369 -342 x370 -506 x371 -738 x372 -114 x373 -218 x374 -318 x375 -172 x376 -284 x377 -572 x378 -38 x379 -372 x380 -230 x381 -782 x382 -504 x383 -872 x384 -784 x385 -810 x386 -508 x387 -572 x388 -790 x389 -552 x390 -390 x391 -290 x392 -256 x393 -74 x394 -562 x395 -920 x396 -356 x397 -544 x398 -610 x399 -864 x400 -308 x401 -900 x402 -970 x403 -214 x404 -292 x405 -148 x406 -948 x407 -954 x408 -188 x409 -538 x410 -458 x411 -966 x412 -828 x413 -888 x414 -966 x415 -344 x416 -260 x417 -194 x418 -562 x419 -80 x420 -744 x421 -898 x422 -80 x423 -654 x424 -348 x425 -798 x426 -238 x427 -426 x428 -170 x429 -620 x430 -744 x431 -752 x432 -808 x433 -776 x434 -320 x435 -730 x436 -862 x437 -380 x438 -990 x439 -564 x440 -382 x441 -278 x442 -842 x443 -584 x444 -570 x445 -944 x446 -808 x447 -142 x448 -400 x449 -938 x450 -560 x451 -516 x452 -768 x453 -232 x454 -826 x455 -614 x456 -572 x457 -330 x458 -128 x459 -318 x460 -506 x461 -488 x462 -114 x463 -132 x464 -290 x465 -282 x466 -706 x467 -984 x468 -390 x469 -340 x470 -988 x471 -478 x472 -346 x473 -140 x474 -378 x475 -446 x476 -218 x477 -578 x478 -186 x479 -860 x480 -274 x481 -10 x482 -452 x483 -830 x484 -206 x485 -362 x486 -144 x487 -560 x488 -774 x489 -632 x490 -700 x491 -206 x492 -774 x493 -640 x494 -566 x495 -748 x496 -112 x497 -810 x498 -108 x499 -46 x500 -608 x501 -592 x502 -896 x503 -58 x504 -978 x505 -596 x506 -30 x507 -260 x508 -320 x509 -378 x510 -326 x511 -238 x512 -380 x513 -440 x514 -512 x515 -760 x516 -776 x517 -940 x518 -246 x519 -394 x520 -832 x521 -830 x522 -94 x523 -450 x524 -428 x525 -872 x526 -104 x527 -82 x528 -20 x529 -306 x530 -330 x531 -912 x532 -542 x533 -238 x534 -508 x535 -424 x536 -562 x537 -632 x538 -812 x539 -782 x540 -704 x541 -946 x542 -56 x543 -402 x544 -84 x545 -536 x546 -860 x547 -770 x548 -490 x549 -726 x550 -510 x551 -108 x552 -84 x553 -942 x554 -378 x555 -86 x556 -982 x557 -28 x558 -840 x559 -116 x560 -510 x561 -588 x562 -670 x563 -984 x564 -384 x565 -944 x566 -8 x567 -328 x568 -388 x569 -280 x570 -678 x571 -464 x572 -536 x573 -616 x574 -230 x575 -522 x576 -926 x577 -992 x578 -344 x579 -906 x580 -246 x581 -936 x582 -424 x583 -316 x584 -556 x585 -662 x586 -174 x587 -634 x588 -256 x589 -774 x590 -152 x591 -196 x592 -962 x593 -984 x594 -542 x595 -844 x596 -270 x597 -458 x598 -972 x599 -328 x600 -8 x601 -528 x602 -912 x603 -792 x604 -306 x605 -656 x606 -330 x607 -538 x608 -252 x609 -480 x610 -576 x611 -130 x612 -428 x613 -212 x614 -358 x615 -566 x616 -808 x617 -386 x618 -108 x619 -268 x620 -174 x621 -164 x622 -654 x623 -270 x624 -438 x625 -550 x626 -14 x627 -174 x628 -334 x629 -872 x630 -758 x631 -156 x632 -570 x633 -982 x634 -70 x635 -64 x636 -74 x637 -670 x638 -282 x639 -336 x640 -418 x641 -558 x642 -4 x643 -82 x644 -772 x645 -334 x646 -530 x647 -516 x648 -554 x649 -740 x650 -568 x651 -370 x652 -606 x653 -338 x654 -996 x655 -496 x656 -238 x657 -862 x658 -458 x659 -492 x660 -428 x661 -888 x662 -724 x663 -672 x664 -378 x665 -108 x666 -76 x667 -746 x668 -446 x669 -86 x670 -56 x671 -118 x672 -392 x673 -960 x674 -620 x675 -776 x676 -364 x677 -122 x678 -820 x679 -974 x680 -910 x681 -920 x682 -78 x683 -324 x684 -362 x685 -364 x686 -336 x687 -348 x688 -700 x689 -738 x690 -524 x691 -410 x692 -244 x693 -76 x694 -118 x695 -440 x696 -998 x697 -600 x698 -216 x699 -918 x700 -568 x701 -34 x702 -64 x703 -562 x704 -868 x705 -462 x706 -236 x707 -846 x708 -832 x709 -486 x710 -454 x711 -654 x712 -584 x713 -772 x714 -924 x715 -666 x716 -1000 x717 -132 x718 -346 x719 -560 x720 -486 x721 -308 x722 -114 x723 -866 x724 -874 x725 -168 x726 -994 x727 -872 x728 -138 x729 -558 x730 -164 x731 -560 x732 -62 x733 -352 x734 -144 x735 -582 x736 -368 x737 -152 x738 -980 x739 -562 x740 -892 x741 -732 x742 -818 x743 -46 x744 -148 x745 -378 x746 -50 x747 -854 x748 -728 x749 -8 x750 -38 x751 -822 x752 -648 x753 -84 x754 -358 x755 -658 x756 -504 x757 -376 x758 -702 x759 -138 x760 -188 x761 -568 x762 -668 x763 -216 x764 -736 x765 -876 x766 -476 x767 -902 x768 -412 x769 -758 x770 -412 x771 -598 x772 -940 x773 -226 x774 -502 x775 -300 x776 -446 x777 -80 x778 -120 x779 -580 x780 -540 x781 -156 x782 -726 x783 -618 x784 -204 x785 -916 x786 -518 x787 -454 x788 -956 x789 -346 x790 -746 x791 -934 x792 -420 x793 -130 x794 -4 x795 -876 x796 -414 x797 -472 x798 -718 x799 -512 x800 -764 x801 -862 x802 -122 x803 -642 x804 -346 x805 -672 x806 -816 x807 -982 x808 -866 x809 -314 x810 -584 x811 -736 x812 -138 x813 -460 x814 -782 x815 -938 x816 -406 x817 -806 x818 -910 x819 -232 x820 -780 x821 -592 x822 -684 x823 -740 x824 -866 x825 -26 x826 -394 x827 -858 x828 -452 x829 -388 x830 -666 x831 -790 x832 -216 x833 -422 x834 -568 x835 -358 x836 -548 x837 -230 x838 -968 x839 -460 x840 -910 x841 -338 x842 -360 x843 -944 x844 -226 x845 -322 x846 -436 x847 -760 x848 -348 x849 -682 x850 -698 x851 -846 x852 -374 x853 -758 x854 -96 x855 -532 x856 -502 x857 -132 x858 -182 x859 -922 x860 -820 x861 -368 x862 -862 x863 -934 x864 -310 x865 -502 x866 -822 x867 -110 x868 -288 x869 -46 x870 -302 x871 -316 x872 -698 x873 -52 x874 -80 x875 -340 x876 -174 x877 -766 x878 -148 x879 -840 x880 -538 x881 -170 x882 -532 x883 -228 x884 -396 x885 -746 x886 -106 x887 -454 x888 -936 x889 -650 x890 -176 x891 -868 x892 -706 x893 -714 x894 -974 x895 -746 x896 -80 x897 -598 x898 -628 x899 -8 x900 -966 x901 -540 x902 -194 x903 -370 x904 -318 x905 -822 x906 -672 x907 -596 x908 -578 x909 -720 x910 -326 x911 -328 x912 -572 x913 -360 x914 -794 x915 -652 x916 -136 x917 -766 x918 -734 x919 -616 x920 -754 x921 -24 x922 -306 x923 -170 x924 -642 x925 -244 x926 -578 x927 -182 x928 -524 x929 -278 x930 -806 x931 -520 x932 -818 x933 -934 x934 -538 x935 -904 x936 -386 x937 -724 x938 -690 x939 -394 x940 -732 x941 -444 x942 -844 x943 -20 x944 -154 x945 -372 x946 -944 x947 -636 x948 -428 x949 -22 x950 -424 x951 -94 x952 -592 x953 -388 x954 -880 x955 -744 x956 -898 x957 -462 x958 -116 x959 -352 x960 -676 x961 -414 x962 -404 x963 -898 x964 -924 x965 -814 x966 -970 x967 -822 x968 -134 x969 -224 x970 -410 x971 -890 x972 -310 x973 -586 x974 -964 x975 -708 x976 -926 x977 -304 x978 -578 x979 -64 x980 -640 x981 -814 x982 -332 x983 -756 x984 -950 x985 -898 x986 -296 x987 -660 x988 -220 x989 -832 x990 -714 x991 -226 x992 -328 x993 -142 x994 -358 x995 -560 x996 -884 x997 -376 x998 -558 x999 -286 x1000 >= -126035 ;